
%FILE DATA:	Soccer Computational Problem for MiniZinc Models	%
%AUTHOR:	Jack Wall	%
%CONTACT:  	116397063@umail.ucc.ie			%
%LAST UPDATE:	02/10/2020, 13:02:53						%
%DESCRIPTION: 	36 games played with 20 games left				%


n=8; %number of teams

%Games to play
games=[|3,7|8,4|5,4|5,7|6,2|1,7|5,3|4,1|8,1|5,1|8,3|1,4|2,6|7,1|2,7|4,6|4,7|1,5|1,6|5,8|];

%Initial points
iPoints=[6,22,16,9,10,15,10,8];

%POSITION CONSTRAINTS
% [|teamID, operator, position|...]
% operators index:
%  1 for =  operator
%  2 for >  operator
%  3 for >= operator
%  4 for <  operator
%  5 for <= operator
positionConstraints=[|2,5,1|7,5,2|];